proyfinal/src/viki/013/experimentInOfficeAgust.take6.output/a4c56288-9091-4ee6-a429-491077528181.als.out
Reading from standard input... Use '--help' for help.
============================[ Problem Statistics ]=============================
|                                                                             |
|  Number of variables:         87638                                         |
|  Number of clauses:          161767                                         |
|  Parse time:                   0.03 s                                       |
|                                                                             |
============================[ Search Statistics ]==============================
| Conflicts |          ORIGINAL         |          LEARNT          | Progress |
|           |    Vars  Clauses Literals |    Limit  Clauses Lit/Cl |          |
===============================================================================
|       100 |   63808   110376   275595 |    40471      100      9 | 27.191 % |
|       250 |   56571   110376   275595 |    44518      249     14 | 35.449 % |
|       475 |   56474    88273   221221 |    48970      469     22 | 35.560 % |
|       812 |   56256    87272   218832 |    53867      790     25 | 35.809 % |
|      1318 |   56256    87164   218585 |    59253     1296     33 | 35.809 % |
|      2077 |   56172    86912   218011 |    65179     2008     53 | 35.905 % |
|      3216 |   56096    86661   217430 |    71697     3136     55 | 35.991 % |
|      4924 |   56053    86286   216549 |    78866     4836     56 | 36.040 % |
|      7486 |   56005    86240   216441 |    86753     7395     64 | 36.095 % |
|     11330 |   55638    84692   212659 |    95428    11079     66 | 36.514 % |
|     17096 |   55575    84428   212035 |   104971    16818     74 | 36.586 % |
===============================================================================
restarts              : 74
conflicts             : 20982          (7234 /sec)
decisions             : 79494          (0.00 % random) (27407 /sec)
propagations          : 30085129       (10372258 /sec)
conflict literals     : 1555822        (42.55 % deleted)
Memory used           : 42.67 MB
CPU time              : 2.90054 s

INDETERMINATE
